Version identifier: 22.1.0.0 | 2022-03-09 | 1a383f8ce
CPXPARAM_Read_DataCheck                          1
Tried aggregator 4 times.
MIP Presolve eliminated 49740 rows and 5686 columns.
MIP Presolve modified 705 coefficients.
Aggregator did 45379 substitutions.
Reduced MIP has 5966 rows, 46435 columns, and 98918 nonzeros.
Reduced MIP has 46405 binaries, 30 generals, 0 SOSs, and 0 indicators.
Presolve time = 0.54 sec. (546.50 ticks)
Tried aggregator 1 time.
Detecting symmetries...
Reduced MIP has 5966 rows, 46435 columns, and 98918 nonzeros.
Reduced MIP has 46405 binaries, 30 generals, 0 SOSs, and 0 indicators.
Presolve time = 0.08 sec. (73.74 ticks)
Probing fixed 48 vars, tightened 0 bounds.
Probing time = 0.23 sec. (28.71 ticks)
Clique table members: 94189.
MIP emphasis: balance optimality and feasibility.
MIP search method: dynamic search.
Parallel mode: deterministic, using up to 8 threads.
Root relaxation solution time = 0.56 sec. (378.13 ticks)

        Nodes                                         Cuts/
   Node  Left     Objective  IInf  Best Integer    Best Bound    ItCnt     Gap

      0     0       30.4220  4656                     30.4220     5451         
      0     0       50.0000   642                    Cuts: 54    14102         
      0     0       50.0000   679                    Cuts: 51    20582         
Heuristic still looking.
*     0+    0                           56.0000       50.0000            10.71%
*     0+    0                           55.0000       50.0000             9.09%
*     0+    0                           54.0000       50.0000             7.41%
      0     0  -1.00000e+75     0       54.0000       50.0000    20582    7.41%
      0     2       50.0000   313       54.0000       50.0000    20582    7.41%
Elapsed time = 133.38 sec. (50933.13 ticks, tree = 0.02 MB, solutions = 3)
      1     3       50.0000   308       54.0000       50.0000    26977    7.41%
*     2+    1                           53.0000       50.0000             5.66%
      2     3       50.0000   315       53.0000       50.0000    27884    5.66%
      3     4       50.0000   289       53.0000       50.0000    31345    5.66%
      4     5       50.0000   258       53.0000       50.0000    38521    5.66%
      5     6       50.0000   289       53.0000       50.0000    43855    5.66%
      6     7       50.0000   193       53.0000       50.0000    45915    5.66%
      7     4       50.0000   331       53.0000       50.0000    32098    5.66%
      8     8       50.0000   265       53.0000       50.0000    52683    5.66%
*     9+    5                           52.0000       50.0000             3.85%
      9     7       50.0000   249       52.0000       50.0000    47210    3.85%
     15    13       50.0000   984       52.0000       50.0000    78216    3.85%
Elapsed time = 171.07 sec. (67334.42 ticks, tree = 0.04 MB, solutions = 7)
     19    16       50.0000  1212       52.0000       50.0000    93442    3.85%
     27    18       50.0000   433       52.0000       50.0000    91022    3.85%
     30    28       50.2125   500       52.0000       50.0000   146066    3.85%
     32    31       50.0000   887       52.0000       50.0000   155794    3.85%
     38    17       50.0000   121       52.0000       50.0000    92961    3.85%
     51    41       50.0000   417       52.0000       50.0000   216469    3.85%
     63    38       50.2222   686       52.0000       50.0000   223502    3.85%
     73    52       50.0000   121       52.0000       50.0000   257240    3.85%
     81    53       50.0000   565       52.0000       50.0000   338569    3.85%
     88    62       50.0000   357       52.0000       50.0000   443443    3.85%
Elapsed time = 217.89 sec. (78104.92 ticks, tree = 0.66 MB, solutions = 8)
*    91    67      integral     0       50.0000       50.0000   508647    0.00%
     95    50       50.0000   322       50.0000       50.0000   338464    0.00%
     97    36       50.0000   187       50.0000       50.0000   234489    0.00%
    100    65       50.0000   294       50.0000       50.0000   447286    0.00%

Clique cuts applied:  1
Zero-half cuts applied:  66
Lift and project cuts applied:  3
Gomory fractional cuts applied:  20

Root node processing (before b&c):
  Real time             =  133.21 sec. (50863.65 ticks)
Parallel b&c, 8 threads:
  Real time             =   90.38 sec. (37533.08 ticks)
  Sync time (average)   =   27.95 sec.
  Wait time (average)   =    0.00 sec.
                          ------------
Total (root+branch&cut) =  223.59 sec. (88396.73 ticks)
